(declare-sort $$unsorted 0)
(declare-fun tptp.op ($$unsorted $$unsorted) $$unsorted)
(assert (forall ((X0 $$unsorted) (X1 $$unsorted) (X2 $$unsorted)) (= X0 (tptp.op X1 (tptp.op X2 (tptp.op (tptp.op X1 X0) X1))))))
(assert (not (forall ((X0 $$unsorted) (X1 $$unsorted) (X2 $$unsorted)) (= X0 (tptp.op X1 (tptp.op X0 (tptp.op (tptp.op X0 X1) X2)))))))
(set-info :filename Equation758_implies_Equation671)
(check-sat-assuming ( true ))
